0 3791
2401 3695
4802 3611
7203 3536
9604 3475
12005 3426
14406 3396
16807 3369
19208 3355
21609 3324
24010 3308
26411 3290
28812 3278
31213 3238
33614 3219
36015 3215
38416 3208
40817 3204
43218 3201
45619 3198
48020 3191
50421 3181
60025 3178
62426 3172
64827 3163
67228 3146
69629 3145
74431 3140
76832 3138
79233 3129
81634 3115
84035 3112
88837 3111
91238 3108
252105 3104
254506 3098
256907 3093
259308 3091
288120 3090
316932 3086
345744 3082
360150 3076
367353 3070
369754 3068
372155 3067
501809 3063
504210 3059
506611 3054
509012 3051
701092 3048
703493 3046
705894 3045
708295 3043
845152 3042
847553 3041
